p cnf 673 1980
e 362 363 365 366 368 369 371 372 374 375 377 378 380 381 383 384 386 387 389 390 392 393 395 396 398 399 401 402 404 405 407 408 410 411 413 414 416 417 419 420 422 423 425 426 428 429 430 431 432 433 434 435 436 437 438 439 440 441 442 443 444 445 446 447 448 449 450 451 452 453 454 455 456 457 458 459 460 461 462 463 464 465 466 467 468 469 470 471 472 473 474 475 476 477 478 479 480 481 482 483 484 485 486 487 488 489 490 491 492 493 494 495 496 497 498 499 500 501 502 503 504 505 506 507 508 509 510 511 512 513 514 515 516 517 518 519 520 521 522 523 524 525 526 527 528 529 530 531 532 533 534 535 536 537 538 539 540 541 542 543 544 545 546 547 548 549 550 551 552 553 554 555 556 557 558 559 560 561 562 563 564 565 566 567 568 569 570 571 572 573 574 575 576 577 578 579 580 581 582 583 584 585 586 587 588 589 590 591 592 593 594 595 596 597 598 599 600 601 602 603 604 605 606 607 608 609 610 611 612 613 614 615 616 617 618 619 620 621 622 623 624 625 626 627 628 629 630 631 632 633 634 635 636 637 638 639 640 641 642 643 644 645 646 647 648 649 650 651 652 653 654 655 656 657 658 659 660 661 662 663 664 665 666 667 668 669 670 671 672 673 0
a 364 367 370 373 376 379 382 385 388 391 394 397 400 403 406 409 412 415 418 421 424 427 0
e 1 2 3 4 5 6 7 8 9 10 11 12 13 14 15 16 17 18 19 20 21 22 23 24 25 26 27 28 29 30 31 32 33 34 35 36 37 38 39 40 41 42 43 44 45 46 47 48 49 50 51 52 53 54 55 56 57 58 59 60 61 62 63 64 65 66 67 68 69 70 71 72 73 74 75 76 77 78 79 80 81 82 83 84 85 86 87 88 89 90 91 92 93 94 95 96 97 98 99 100 101 102 103 104 105 106 107 108 109 110 111 112 113 114 115 116 117 118 119 120 121 122 123 124 125 126 127 128 129 130 131 132 133 134 135 136 137 138 139 140 141 142 143 144 145 146 147 148 149 150 151 152 153 154 155 156 157 158 159 160 161 162 163 164 165 166 167 168 169 170 171 172 173 174 175 176 177 178 179 180 181 182 183 184 185 186 187 188 189 190 191 192 193 194 195 196 197 198 199 200 201 202 203 204 205 206 207 208 209 210 211 212 213 214 215 216 217 218 219 220 221 222 223 224 225 226 227 228 229 230 231 232 233 234 235 236 237 238 239 240 241 242 243 244 245 246 247 248 249 250 251 252 253 254 255 256 257 258 259 260 261 262 263 264 265 266 267 268 269 270 271 272 273 274 275 276 277 278 279 280 281 282 283 284 285 286 287 288 289 290 291 292 293 294 295 296 297 298 299 300 301 302 303 304 305 306 307 308 309 310 311 312 313 314 315 316 317 318 319 320 321 322 323 324 325 326 327 328 329 330 331 332 333 334 335 336 337 338 339 340 341 342 343 344 345 346 347 348 349 350 352 354 355 356 359 361 0
1 0
30 -6 0
31 -7 0
30 -4 0
31 -5 0
6 4 -30 0
7 5 -31 0
32 -8 0
32 -6 0
8 6 -32 0
33 -8 0
34 -9 0
33 -2 0
34 -3 0
8 2 -33 0
9 3 -34 0
8 -35 0
6 -35 0
35 -8 -6 0
26 -36 0
2 -36 0
36 -26 -2 0
37 -8 0
38 -9 0
2 37 0
3 38 0
8 -2 -37 0
9 -3 -38 0
10 -39 0
-2 -39 0
2 39 -10 0
4 40 0
5 41 0
40 -2 0
41 -3 0
2 -4 -40 0
3 -5 -41 0
42 -28 0
4 42 0
28 -4 -42 0
4 43 0
5 44 0
2 43 0
3 44 0
-4 -2 -43 0
-5 -3 -44 0
-4 -45 0
2 -45 0
4 45 -2 0
6 -46 0
-4 -46 0
4 46 -6 0
6 -47 0
-4 -47 0
4 47 -6 0
6 -48 0
-4 -48 0
4 48 -6 0
16 -49 0
-4 -49 0
4 49 -16 0
-2 -50 0
30 -50 0
2 50 -30 0
6 51 0
51 -2 0
2 -6 -51 0
6 52 0
52 -8 0
8 -6 -52 0
53 -28 0
6 53 0
28 -6 -53 0
6 54 0
7 55 0
4 54 0
5 55 0
-6 -4 -54 0
-7 -5 -55 0
6 56 0
2 56 0
-6 -2 -56 0
-6 -57 0
-2 -57 0
6 2 57 0
22 -58 0
-6 -58 0
-2 -58 0
6 2 58 -22 0
26 -59 0
-6 -59 0
2 -59 0
6 59 -26 -2 0
10 60 0
11 61 0
60 -4 0
61 -5 0
4 -10 -60 0
5 -11 -61 0
10 62 0
8 62 0
-10 -8 -62 0
10 63 0
63 -6 0
6 -10 -63 0
-10 -64 0
8 -64 0
-4 -64 0
-2 -64 0
10 4 2 64 -8 0
-10 -65 0
-4 -65 0
-2 -65 0
10 4 2 65 0
-10 -66 0
8 -66 0
6 -66 0
10 66 -8 -6 0
-10 -67 0
8 -67 0
-6 -67 0
-2 -67 0
10 6 2 67 -8 0
-10 -68 0
-6 -68 0
2 -68 0
10 6 68 -2 0
-10 -69 0
-6 -69 0
4 -69 0
10 6 69 -4 0
-10 -70 0
-4 -70 0
-2 -70 0
10 4 2 70 0
-10 -71 0
8 -71 0
-4 -71 0
-2 -71 0
10 4 2 71 -8 0
-10 -72 0
-4 -72 0
10 4 72 0
-10 -73 0
-6 -73 0
10 6 73 0
26 -74 0
27 -75 0
16 -74 0
17 -75 0
-12 -74 0
-13 -75 0
-10 -74 0
-11 -75 0
12 10 74 -26 -16 0
13 11 75 -27 -17 0
-12 -76 0
8 -76 0
-6 -76 0
-2 -76 0
12 6 2 76 -8 0
77 -26 0
78 -27 0
16 77 0
17 78 0
26 -16 -77 0
27 -17 -78 0
16 79 0
79 -6 0
6 -16 -79 0
-16 -80 0
-4 -80 0
-2 -80 0
16 4 2 80 0
-16 -81 0
-12 -81 0
-10 -81 0
2 -81 0
16 12 10 81 -2 0
20 82 0
21 83 0
18 82 0
19 83 0
-20 -18 -82 0
-21 -19 -83 0
-22 -84 0
-8 -84 0
22 8 84 0
-22 -85 0
-16 -85 0
22 16 85 0
24 86 0
6 86 0
-24 -6 -86 0
24 87 0
87 -2 0
2 -24 -87 0
88 -8 0
88 -36 0
8 36 -88 0
-26 -89 0
8 -89 0
-6 -89 0
26 6 89 -8 0
37 -90 0
-6 -90 0
6 90 -37 0
91 -8 0
91 -49 0
8 49 -91 0
-16 -92 0
8 -92 0
-2 -92 0
-30 -92 0
16 2 30 92 -8 0
22 -93 0
-2 -93 0
-30 -93 0
2 30 93 -22 0
8 -94 0
-30 -94 0
30 94 -8 0
-10 -95 0
-11 -96 0
-8 -95 0
-9 -96 0
-30 -95 0
-31 -96 0
10 8 30 95 0
11 9 31 96 0
97 -51 0
97 -4 0
51 4 -97 0
4 -98 0
51 -98 0
98 -4 -51 0
8 -99 0
2 -99 0
54 -99 0
99 -8 -2 -54 0
10 -100 0
-2 -100 0
-32 -100 0
2 32 100 -10 0
10 -101 0
11 -102 0
6 -101 0
7 -102 0
-33 -101 0
-34 -102 0
33 101 -10 -6 0
34 102 -11 -7 0
-4 -103 0
-5 -104 0
-33 -103 0
-34 -104 0
4 33 103 0
5 34 104 0
-10 -105 0
6 -105 0
-33 -105 0
10 33 105 -6 0
106 -35 0
106 -73 0
35 73 -106 0
8 -107 0
9 -108 0
-2 -107 0
-3 -108 0
-30 -107 0
-31 -108 0
74 -107 0
75 -108 0
2 30 107 -8 -74 0
3 31 108 -9 -75 0
109 -77 0
28 109 0
77 -28 -109 0
79 -110 0
-4 -110 0
-2 -110 0
4 2 110 -79 0
111 -81 0
111 -39 0
81 39 -111 0
82 -112 0
-2 -112 0
2 112 -82 0
113 -40 0
113 -84 0
40 84 -113 0
114 -85 0
114 -4 0
85 4 -114 0
4 -115 0
86 -115 0
115 -4 -86 0
87 -116 0
-4 -116 0
4 116 -87 0
88 -117 0
10 -117 0
4 -117 0
117 -88 -10 -4 0
37 118 0
118 -58 0
58 -37 -118 0
37 119 0
4 119 0
-37 -4 -119 0
12 -120 0
10 -120 0
-37 -120 0
37 120 -12 -10 0
54 -121 0
-37 -121 0
37 121 -54 0
12 -122 0
-37 -122 0
37 122 -12 0
-4 -123 0
-37 -123 0
4 37 123 0
16 -124 0
17 -125 0
-30 -124 0
-31 -125 0
-37 -124 0
-38 -125 0
30 37 124 -16 0
31 38 125 -17 0
8 -126 0
9 -127 0
-6 -126 0
-7 -127 0
-40 -126 0
-41 -127 0
6 40 126 -8 0
7 41 127 -9 0
-40 -128 0
52 -128 0
40 128 -52 0
8 -129 0
9 -130 0
6 -129 0
7 -130 0
-40 -129 0
-41 -130 0
40 129 -8 -6 0
41 130 -9 -7 0
6 -131 0
-40 -131 0
40 131 -6 0
-10 -132 0
-11 -133 0
-40 -132 0
-41 -133 0
10 40 132 0
11 41 133 0
6 -134 0
-40 -134 0
40 134 -6 0
-10 -135 0
8 -135 0
-40 -135 0
10 40 135 -8 0
43 136 0
136 -70 0
70 -43 -136 0
8 -137 0
-43 -137 0
43 137 -8 0
-26 -138 0
-6 -138 0
-43 -138 0
26 6 43 138 0
-6 -139 0
-43 -139 0
6 43 139 0
16 -140 0
-43 -140 0
43 140 -16 0
-24 -141 0
10 -141 0
-43 -141 0
24 43 141 -10 0
-6 -142 0
-43 -142 0
6 43 142 0
91 -143 0
-6 -143 0
6 143 -91 0
97 -144 0
8 -144 0
144 -97 -8 0
42 -145 0
-51 -145 0
51 145 -42 0
2 -146 0
-52 -146 0
52 146 -2 0
12 -147 0
10 -147 0
-43 -147 0
-52 -147 0
43 52 147 -12 -10 0
148 -93 0
148 -99 0
93 99 -148 0
-8 -149 0
-54 -149 0
8 54 149 0
28 -150 0
29 -151 0
77 -150 0
78 -151 0
10 -150 0
11 -151 0
-54 -150 0
-55 -151 0
54 150 -28 -77 -10 0
55 151 -29 -78 -11 0
10 -152 0
11 -153 0
-8 -152 0
-9 -153 0
-54 -152 0
-55 -153 0
8 54 152 -10 0
9 55 153 -11 0
-8 -154 0
-54 -154 0
8 54 154 0
8 -155 0
9 -156 0
-54 -155 0
-55 -156 0
54 155 -8 0
55 156 -9 0
-28 -157 0
-54 -157 0
28 54 157 0
-4 -158 0
-56 -158 0
4 56 158 0
8 -159 0
-4 -159 0
-56 -159 0
4 56 159 -8 0
-22 -160 0
-56 -160 0
22 56 160 0
60 161 0
6 161 0
-60 -6 -161 0
33 -162 0
34 -163 0
-60 -162 0
-61 -163 0
60 162 -33 0
61 163 -34 0
-2 -164 0
-60 -164 0
2 60 164 0
2 -165 0
-60 -165 0
60 165 -2 0
-60 -166 0
-52 -166 0
60 52 166 0
-2 -167 0
-62 -167 0
2 62 167 0
63 168 0
168 -66 0
66 -63 -168 0
63 169 0
169 -4 0
4 -63 -169 0
8 -170 0
4 -170 0
-63 -170 0
63 170 -8 -4 0
106 -171 0
-40 -171 0
40 171 -106 0
22 -172 0
2 -172 0
109 -172 0
172 -22 -2 -109 0
109 -173 0
22 -173 0
-43 -173 0
43 173 -109 -22 0
22 -174 0
23 -175 0
10 -174 0
11 -175 0
-43 -174 0
-44 -175 0
-77 -174 0
-78 -175 0
43 77 174 -22 -10 0
44 78 175 -23 -11 0
176 -98 0
176 -110 0
98 110 -176 0
-22 -177 0
111 -177 0
22 177 -111 0
43 178 0
178 -112 0
112 -43 -178 0
82 179 0
83 180 0
179 -24 0
180 -25 0
24 -82 -179 0
25 -83 -180 0
-8 -181 0
-40 -181 0
-82 -181 0
-53 -181 0
8 40 82 53 181 0
-2 -182 0
-32 -182 0
-82 -182 0
2 32 82 182 0
-4 -183 0
-33 -183 0
-82 -183 0
4 33 82 183 0
-33 -184 0
-34 -185 0
-82 -184 0
-83 -185 0
33 82 184 0
34 83 185 0
8 -186 0
-82 -186 0
82 186 -8 0
10 -187 0
-2 -187 0
-82 -187 0
2 82 187 -10 0
10 -188 0
4 -188 0
-82 -188 0
82 188 -10 -4 0
113 -189 0
-6 -189 0
6 189 -113 0
114 -190 0
-6 -190 0
6 190 -114 0
2 191 0
191 -46 0
191 -115 0
46 115 -2 -191 0
192 -116 0
192 -57 0
116 57 -192 0
193 -117 0
193 -64 0
117 64 -193 0
118 -194 0
-60 -194 0
60 194 -118 0
119 -195 0
-6 -195 0
6 195 -119 0
196 -121 0
196 -94 0
121 94 -196 0
197 -123 0
197 -67 0
123 67 -197 0
198 -122 0
198 -134 0
122 134 -198 0
-22 -199 0
136 -199 0
22 199 -136 0
200 -140 0
200 -65 0
140 65 -200 0
201 -141 0
201 -71 0
141 71 -201 0
202 -142 0
202 -48 0
142 48 -202 0
-8 -203 0
-97 -203 0
8 97 203 0
204 -145 0
204 -139 0
145 139 -204 0
205 -146 0
205 -90 0
146 90 -205 0
206 -147 0
206 -76 0
147 76 -206 0
10 -207 0
148 -207 0
207 -10 -148 0
208 -149 0
208 -143 0
149 143 -208 0
209 -150 0
210 -151 0
209 -95 0
210 -96 0
150 95 -209 0
151 96 -210 0
211 -152 0
212 -153 0
211 -107 0
212 -108 0
152 107 -211 0
153 108 -212 0
213 -154 0
213 -89 0
154 89 -213 0
214 -155 0
215 -156 0
214 -124 0
215 -125 0
155 124 -214 0
156 125 -215 0
216 -157 0
30 216 0
157 -30 -216 0
217 -160 0
217 -8 0
160 8 -217 0
161 -218 0
2 -218 0
218 -161 -2 0
219 -162 0
220 -163 0
219 -132 0
220 -133 0
162 132 -219 0
163 133 -220 0
221 -165 0
221 -135 0
165 135 -221 0
222 -166 0
222 -69 0
166 69 -222 0
223 -167 0
223 -68 0
167 68 -223 0
168 -224 0
-87 -224 0
87 224 -168 0
169 -225 0
12 -225 0
8 -225 0
-2 -225 0
2 225 -169 -12 -8 0
226 -105 0
226 -170 0
105 170 -226 0
4 227 0
227 -172 0
172 -4 -227 0
228 -173 0
228 -80 0
173 80 -228 0
176 -229 0
8 -229 0
229 -176 -8 0
230 -164 0
230 -177 0
164 177 -230 0
178 -231 0
-6 -231 0
6 231 -178 0
179 -232 0
180 -233 0
-40 -232 0
-41 -233 0
40 232 -179 0
41 233 -180 0
234 -184 0
235 -185 0
234 -174 0
235 -175 0
184 174 -234 0
185 175 -235 0
52 236 0
236 -186 0
186 -52 -236 0
237 -187 0
237 -59 0
187 59 -237 0
238 -188 0
238 -72 0
188 72 -238 0
239 -190 0
239 -47 0
190 47 -239 0
-8 -240 0
191 -240 0
8 240 -191 0
192 -241 0
-8 -241 0
8 241 -192 0
193 -242 0
-6 -242 0
6 242 -193 0
243 -131 0
243 -195 0
131 195 -243 0
12 -244 0
196 -244 0
10 -244 0
244 -12 -196 -10 0
-16 -245 0
197 -245 0
16 245 -197 0
198 -246 0
10 -246 0
246 -198 -10 0
-26 -247 0
200 -247 0
26 247 -200 0
-26 -248 0
201 -248 0
26 248 -201 0
8 -249 0
202 -249 0
249 -8 -202 0
204 -250 0
-8 -250 0
8 250 -204 0
205 -251 0
-60 -251 0
60 251 -205 0
24 -252 0
206 -252 0
252 -24 -206 0
-10 -253 0
2 -253 0
208 -253 0
10 253 -2 -208 0
22 -254 0
23 -255 0
209 -254 0
210 -255 0
2 -254 0
3 -255 0
254 -22 -209 -2 0
255 -23 -210 -3 0
-24 -256 0
-25 -257 0
211 -256 0
212 -257 0
24 256 -211 0
25 257 -212 0
-10 -258 0
-2 -258 0
213 -258 0
10 2 258 -213 0
-10 -259 0
-11 -260 0
214 -259 0
215 -260 0
10 259 -214 0
11 260 -215 0
-2 -261 0
216 -261 0
-82 -261 0
2 82 261 -216 0
217 -262 0
-10 -262 0
10 262 -217 0
219 -263 0
220 -264 0
-6 -263 0
-7 -264 0
6 263 -219 0
7 264 -220 0
221 -265 0
-6 -265 0
6 265 -221 0
12 -266 0
-2 -266 0
222 -266 0
2 266 -12 -222 0
-22 -267 0
223 -267 0
22 267 -223 0
226 -268 0
82 -268 0
268 -226 -82 0
8 -269 0
227 -269 0
269 -8 -227 0
228 -270 0
8 -270 0
270 -228 -8 0
271 -181 0
271 -229 0
181 229 -271 0
230 -272 0
-32 -272 0
32 272 -230 0
273 -232 0
274 -233 0
8 273 0
9 274 0
232 -8 -273 0
233 -9 -274 0
-28 -275 0
-29 -276 0
234 -275 0
235 -276 0
28 275 -234 0
29 276 -235 0
-24 -277 0
-2 -277 0
236 -277 0
24 2 277 -236 0
-12 -278 0
4 -278 0
237 -278 0
12 278 -4 -237 0
238 -279 0
-12 -279 0
8 -279 0
-2 -279 0
12 2 279 -238 -8 0
239 -280 0
2 -280 0
280 -239 -2 0
281 -240 0
281 -50 0
240 50 -281 0
282 -203 0
282 -242 0
203 242 -282 0
10 -283 0
243 -283 0
283 -10 -243 0
284 -247 0
284 -199 0
284 -218 0
247 199 218 -284 0
285 -183 0
285 -248 0
183 248 -285 0
286 -92 0
286 -250 0
92 250 -286 0
287 -138 0
287 -262 0
138 262 -287 0
288 -129 0
289 -130 0
288 -263 0
289 -264 0
129 263 -288 0
130 264 -289 0
290 -182 0
290 -267 0
182 267 -290 0
291 -270 0
291 -241 0
291 -231 0
270 241 231 -291 0
-10 -292 0
271 -292 0
10 292 -271 0
273 -293 0
274 -294 0
6 -293 0
7 -294 0
293 -273 -6 0
294 -274 -7 0
295 -103 0
296 -104 0
295 -275 0
296 -276 0
103 275 -295 0
104 276 -296 0
297 -189 0
297 -45 0
297 -277 0
297 -269 0
189 45 277 269 -297 0
298 -246 0
298 -278 0
246 278 -298 0
299 -120 0
299 -279 0
120 279 -299 0
300 -261 0
300 -144 0
300 -280 0
261 144 280 -300 0
10 -301 0
281 -301 0
301 -10 -281 0
24 -302 0
282 -302 0
302 -24 -282 0
303 -171 0
303 -283 0
171 283 -303 0
284 -304 0
8 -304 0
304 -284 -8 0
285 -305 0
-6 -305 0
6 305 -285 0
-10 -306 0
286 -306 0
10 306 -286 0
24 -307 0
287 -307 0
307 -24 -287 0
12 -308 0
13 -309 0
288 -308 0
289 -309 0
308 -12 -288 0
309 -13 -289 0
290 -310 0
-4 -310 0
4 310 -290 0
10 -311 0
291 -311 0
311 -10 -291 0
312 -126 0
313 -127 0
312 -293 0
313 -294 0
126 293 -312 0
127 294 -313 0
295 -314 0
296 -315 0
6 -314 0
7 -315 0
314 -295 -6 0
315 -296 -7 0
10 -316 0
297 -316 0
316 -10 -297 0
-24 -317 0
298 -317 0
24 317 -298 0
-24 -318 0
299 -318 0
24 318 -299 0
300 -319 0
-10 -319 0
10 319 -300 0
320 -301 0
320 -128 0
301 128 -320 0
12 -321 0
303 -321 0
321 -12 -303 0
322 -304 0
322 -292 0
304 292 -322 0
323 -302 0
323 -305 0
323 -207 0
302 305 207 -323 0
324 -224 0
324 -311 0
324 -310 0
324 -253 0
224 311 310 253 -324 0
10 -325 0
11 -326 0
312 -325 0
313 -326 0
325 -10 -312 0
326 -11 -313 0
327 -245 0
327 -316 0
327 -158 0
245 316 158 -327 0
328 -137 0
328 -100 0
328 -319 0
328 -307 0
137 100 319 307 -328 0
12 -329 0
320 -329 0
329 -12 -320 0
322 -330 0
-12 -330 0
12 330 -322 0
331 -306 0
331 -268 0
331 -159 0
331 -323 0
306 268 159 323 -331 0
-12 -332 0
324 -332 0
12 332 -324 0
333 -314 0
334 -315 0
333 -254 0
334 -255 0
333 -325 0
334 -326 0
333 -259 0
334 -260 0
314 254 325 259 -333 0
315 255 326 260 -334 0
335 -249 0
335 -258 0
335 -327 0
249 258 327 -335 0
328 -336 0
-12 -336 0
12 336 -328 0
337 -318 0
337 -330 0
337 -244 0
318 330 244 -337 0
-12 -338 0
331 -338 0
12 338 -331 0
339 -251 0
339 -225 0
339 -332 0
251 225 332 -339 0
333 -340 0
334 -341 0
-12 -340 0
-13 -341 0
12 340 -333 0
13 341 -334 0
335 -342 0
-12 -342 0
12 342 -335 0
343 -194 0
343 -336 0
343 -317 0
343 -321 0
194 336 317 321 -343 0
344 -272 0
344 -329 0
344 -338 0
272 329 338 -344 0
345 -101 0
346 -102 0
345 -256 0
346 -257 0
345 -340 0
346 -341 0
345 -308 0
346 -309 0
101 256 340 308 -345 0
102 257 341 309 -346 0
347 -342 0
347 -265 0
347 -252 0
347 -266 0
342 265 252 266 -347 0
337 -348 0
14 -348 0
348 -337 -14 0
339 -349 0
14 -349 0
349 -339 -14 0
343 -350 0
14 -350 0
350 -343 -14 0
344 -352 0
14 -352 0
352 -344 -14 0
345 -354 0
346 -355 0
14 -354 0
15 -355 0
354 -345 -14 0
355 -346 -15 0
347 -356 0
14 -356 0
356 -347 -14 0
354 355 -359 0
-359 -354 -355 0
359 354 -355 0
359 355 -354 0
3 -354 0
354 -3 0
5 -356 0
356 -5 0
7 -349 0
349 -7 0
9 -352 0
352 -9 0
11 -350 0
350 -11 0
13 -348 0
348 -13 0
-20 -361 0
21 -361 0
82 -361 0
-83 -361 0
-179 -361 0
180 -361 0
-232 -361 0
233 -361 0
-273 -361 0
274 -361 0
-293 -361 0
294 -361 0
-312 -361 0
313 -361 0
-325 -361 0
326 -361 0
-333 -361 0
334 -361 0
-340 -361 0
341 -361 0
-345 -361 0
346 -361 0
-354 -361 0
355 -361 0
20 83 179 232 273 293 312 325 333 340 345 354 361 -21 -82 -180 -233 -274 -294 -313 -326 -334 -341 -346 -355 0
361 0
362 363 -14 0
362 14 -363 0
364 -362 -14 0
14 -362 -364 0
365 366 -15 0
365 15 -366 0
367 -365 -15 0
15 -365 -367 0
368 369 -16 0
368 16 -369 0
370 -368 -16 0
16 -368 -370 0
371 372 -17 0
371 17 -372 0
373 -371 -17 0
17 -371 -373 0
374 375 -18 0
374 18 -375 0
376 -374 -18 0
18 -374 -376 0
377 378 -19 0
377 19 -378 0
379 -377 -19 0
19 -377 -379 0
380 381 -20 0
380 20 -381 0
382 -380 -20 0
20 -380 -382 0
383 384 -21 0
383 21 -384 0
385 -383 -21 0
21 -383 -385 0
386 387 -22 0
386 22 -387 0
388 -386 -22 0
22 -386 -388 0
389 390 -23 0
389 23 -390 0
391 -389 -23 0
23 -389 -391 0
392 393 -24 0
392 24 -393 0
394 -392 -24 0
24 -392 -394 0
395 396 -25 0
395 25 -396 0
397 -395 -25 0
25 -395 -397 0
398 399 -26 0
398 26 -399 0
400 -398 -26 0
26 -398 -400 0
401 402 -27 0
401 27 -402 0
403 -401 -27 0
27 -401 -403 0
404 405 -28 0
404 28 -405 0
406 -404 -28 0
28 -404 -406 0
407 408 -29 0
407 29 -408 0
409 -407 -29 0
29 -407 -409 0
410 411 -2 0
410 2 -411 0
412 -410 -2 0
2 -410 -412 0
413 414 -4 0
413 4 -414 0
415 -413 -4 0
4 -413 -415 0
416 417 -6 0
416 6 -417 0
418 -416 -6 0
6 -416 -418 0
419 420 -8 0
419 8 -420 0
421 -419 -8 0
8 -419 -421 0
422 423 -10 0
422 10 -423 0
424 -422 -10 0
10 -422 -424 0
425 426 -12 0
425 12 -426 0
427 -425 -12 0
12 -425 -427 0
428 -362 0
428 -365 0
362 365 -428 0
362 -429 0
365 -429 0
429 -362 -365 0
430 -371 0
430 -374 0
371 374 -430 0
371 -431 0
374 -431 0
431 -371 -374 0
432 -368 0
432 -431 0
368 431 -432 0
368 -433 0
431 -433 0
433 -368 -431 0
434 -432 0
434 -430 0
432 430 -434 0
432 -435 0
430 -435 0
435 -432 -430 0
436 -429 0
436 -433 0
429 433 -436 0
429 -437 0
433 -437 0
437 -429 -433 0
438 -436 0
438 -434 0
436 434 -438 0
436 -439 0
434 -439 0
439 -436 -434 0
440 -428 0
440 -435 0
428 435 -440 0
428 -441 0
435 -441 0
441 -428 -435 0
442 -438 0
442 -440 0
438 440 -442 0
438 -443 0
440 -443 0
443 -438 -440 0
444 -439 0
444 -441 0
439 441 -444 0
439 -445 0
441 -445 0
445 -439 -441 0
446 -380 0
446 -383 0
380 383 -446 0
380 -447 0
383 -447 0
447 -380 -383 0
448 -377 0
448 -447 0
377 447 -448 0
377 -449 0
447 -449 0
449 -377 -447 0
450 -448 0
450 -446 0
448 446 -450 0
448 -451 0
446 -451 0
451 -448 -446 0
452 -389 0
452 -392 0
389 392 -452 0
389 -453 0
392 -453 0
453 -389 -392 0
454 -386 0
454 -452 0
386 452 -454 0
386 -455 0
452 -455 0
455 -386 -452 0
456 -455 0
456 -453 0
455 453 -456 0
455 -457 0
453 -457 0
457 -455 -453 0
458 -450 0
458 -456 0
450 456 -458 0
450 -459 0
456 -459 0
459 -450 -456 0
460 -451 0
460 -454 0
451 454 -460 0
451 -461 0
454 -461 0
461 -451 -454 0
462 -459 0
462 -449 0
459 449 -462 0
459 -463 0
449 -463 0
463 -459 -449 0
464 -461 0
464 -457 0
461 457 -464 0
461 -465 0
457 -465 0
465 -461 -457 0
466 -463 0
466 -465 0
463 465 -466 0
463 -467 0
465 -467 0
467 -463 -465 0
468 -462 0
468 -464 0
462 464 -468 0
462 -469 0
464 -469 0
469 -462 -464 0
470 -458 0
470 -460 0
458 460 -470 0
458 -471 0
460 -471 0
471 -458 -460 0
472 -442 0
472 -468 0
442 468 -472 0
442 -473 0
468 -473 0
473 -442 -468 0
474 -443 0
474 -471 0
443 471 -474 0
443 -475 0
471 -475 0
475 -443 -471 0
476 -444 0
476 -470 0
444 470 -476 0
444 -477 0
470 -477 0
477 -444 -470 0
478 -473 0
478 -437 0
473 437 -478 0
473 -479 0
437 -479 0
479 -473 -437 0
480 -475 0
480 -467 0
475 467 -480 0
475 -481 0
467 -481 0
481 -475 -467 0
482 -477 0
482 -466 0
477 466 -482 0
477 -483 0
466 -483 0
483 -477 -466 0
484 -445 0
484 -469 0
445 469 -484 0
445 -485 0
469 -485 0
485 -445 -469 0
486 -479 0
486 -483 0
479 483 -486 0
479 -487 0
483 -487 0
487 -479 -483 0
488 -481 0
488 -485 0
481 485 -488 0
481 -489 0
485 -489 0
489 -481 -485 0
490 -487 0
490 -489 0
487 489 -490 0
487 -491 0
489 -491 0
491 -487 -489 0
492 -486 0
492 -488 0
486 488 -492 0
486 -493 0
488 -493 0
493 -486 -488 0
494 -478 0
494 -482 0
478 482 -494 0
478 -495 0
482 -495 0
495 -478 -482 0
496 -480 0
496 -484 0
480 484 -496 0
480 -497 0
484 -497 0
497 -480 -484 0
498 -495 0
498 -497 0
495 497 -498 0
495 -499 0
497 -499 0
499 -495 -497 0
500 -494 0
500 -496 0
494 496 -500 0
494 -501 0
496 -501 0
501 -494 -496 0
502 -472 0
502 -476 0
472 476 -502 0
472 -503 0
476 -503 0
503 -472 -476 0
504 -503 0
504 -474 0
503 474 -504 0
503 -505 0
474 -505 0
505 -503 -474 0
506 -395 0
506 -398 0
395 398 -506 0
395 -507 0
398 -507 0
507 -395 -398 0
508 -404 0
508 -407 0
404 407 -508 0
404 -509 0
407 -509 0
509 -404 -407 0
510 -401 0
510 -508 0
401 508 -510 0
401 -511 0
508 -511 0
511 -401 -508 0
512 -511 0
512 -509 0
511 509 -512 0
511 -513 0
509 -513 0
513 -511 -509 0
514 -506 0
514 -510 0
506 510 -514 0
506 -515 0
510 -515 0
515 -506 -510 0
516 -515 0
516 -513 0
515 513 -516 0
515 -517 0
513 -517 0
517 -515 -513 0
518 -507 0
518 -512 0
507 512 -518 0
507 -519 0
512 -519 0
519 -507 -512 0
520 -517 0
520 -519 0
517 519 -520 0
517 -521 0
519 -521 0
521 -517 -519 0
522 -516 0
522 -518 0
516 518 -522 0
516 -523 0
518 -523 0
523 -516 -518 0
524 -413 0
524 -416 0
413 416 -524 0
413 -525 0
416 -525 0
525 -413 -416 0
526 -410 0
526 -524 0
410 524 -526 0
410 -527 0
524 -527 0
527 -410 -524 0
528 -527 0
528 -525 0
527 525 -528 0
527 -529 0
525 -529 0
529 -527 -525 0
530 -422 0
530 -425 0
422 425 -530 0
422 -531 0
425 -531 0
531 -422 -425 0
532 -419 0
532 -531 0
419 531 -532 0
419 -533 0
531 -533 0
533 -419 -531 0
534 -532 0
534 -530 0
532 530 -534 0
532 -535 0
530 -535 0
535 -532 -530 0
536 -529 0
536 -535 0
529 535 -536 0
529 -537 0
535 -537 0
537 -529 -535 0
538 -528 0
538 -533 0
528 533 -538 0
528 -539 0
533 -539 0
539 -528 -533 0
540 -536 0
540 -526 0
536 526 -540 0
536 -541 0
526 -541 0
541 -536 -526 0
542 -538 0
542 -534 0
538 534 -542 0
538 -543 0
534 -543 0
543 -538 -534 0
544 -540 0
544 -542 0
540 542 -544 0
540 -545 0
542 -545 0
545 -540 -542 0
546 -541 0
546 -543 0
541 543 -546 0
541 -547 0
543 -547 0
547 -541 -543 0
548 -537 0
548 -539 0
537 539 -548 0
537 -549 0
539 -549 0
549 -537 -539 0
550 -521 0
550 -547 0
521 547 -550 0
521 -551 0
547 -551 0
551 -521 -547 0
552 -520 0
552 -548 0
520 548 -552 0
520 -553 0
548 -553 0
553 -520 -548 0
554 -523 0
554 -549 0
523 549 -554 0
523 -555 0
549 -555 0
555 -523 -549 0
556 -550 0
556 -514 0
550 514 -556 0
550 -557 0
514 -557 0
557 -550 -514 0
558 -552 0
558 -544 0
552 544 -558 0
552 -559 0
544 -559 0
559 -552 -544 0
560 -554 0
560 -545 0
554 545 -560 0
554 -561 0
545 -561 0
561 -554 -545 0
562 -522 0
562 -546 0
522 546 -562 0
522 -563 0
546 -563 0
563 -522 -546 0
564 -556 0
564 -560 0
556 560 -564 0
556 -565 0
560 -565 0
565 -556 -560 0
566 -558 0
566 -562 0
558 562 -566 0
558 -567 0
562 -567 0
567 -558 -562 0
568 -564 0
568 -566 0
564 566 -568 0
564 -569 0
566 -569 0
569 -564 -566 0
570 -565 0
570 -567 0
565 567 -570 0
565 -571 0
567 -571 0
571 -565 -567 0
572 -557 0
572 -561 0
557 561 -572 0
557 -573 0
561 -573 0
573 -557 -561 0
574 -559 0
574 -563 0
559 563 -574 0
559 -575 0
563 -575 0
575 -559 -563 0
576 -572 0
576 -574 0
572 574 -576 0
572 -577 0
574 -577 0
577 -572 -574 0
578 -573 0
578 -575 0
573 575 -578 0
573 -579 0
575 -579 0
579 -573 -575 0
580 -551 0
580 -555 0
551 555 -580 0
551 -581 0
555 -581 0
581 -551 -555 0
582 -580 0
582 -553 0
580 553 -582 0
580 -583 0
553 -583 0
583 -580 -553 0
584 -491 0
584 -577 0
491 577 -584 0
491 -585 0
577 -585 0
585 -491 -577 0
586 -490 0
586 -578 0
490 578 -586 0
490 -587 0
578 -587 0
587 -490 -578 0
588 -493 0
588 -579 0
493 579 -588 0
493 -589 0
579 -589 0
589 -493 -579 0
590 -492 0
590 -582 0
492 582 -590 0
492 -591 0
582 -591 0
591 -492 -582 0
592 -499 0
592 -583 0
499 583 -592 0
499 -593 0
583 -593 0
593 -499 -583 0
594 -498 0
594 -581 0
498 581 -594 0
498 -595 0
581 -595 0
595 -498 -581 0
596 -584 0
596 -505 0
584 505 -596 0
584 -597 0
505 -597 0
597 -584 -505 0
598 -586 0
598 -504 0
586 504 -598 0
586 -599 0
504 -599 0
599 -586 -504 0
600 -588 0
600 -502 0
588 502 -600 0
588 -601 0
502 -601 0
601 -588 -502 0
602 -590 0
602 -568 0
590 568 -602 0
590 -603 0
568 -603 0
603 -590 -568 0
604 -592 0
604 -569 0
592 569 -604 0
592 -605 0
569 -605 0
605 -592 -569 0
606 -594 0
606 -570 0
594 570 -606 0
594 -607 0
570 -607 0
607 -594 -570 0
608 -501 0
608 -571 0
501 571 -608 0
501 -609 0
571 -609 0
609 -501 -571 0
610 -500 0
610 -576 0
500 576 -610 0
500 -611 0
576 -611 0
611 -500 -576 0
612 -596 0
612 -604 0
596 604 -612 0
596 -613 0
604 -613 0
613 -596 -604 0
614 -598 0
614 -606 0
598 606 -614 0
598 -615 0
606 -615 0
615 -598 -606 0
616 -600 0
616 -608 0
600 608 -616 0
600 -617 0
608 -617 0
617 -600 -608 0
618 -602 0
618 -610 0
602 610 -618 0
602 -619 0
610 -619 0
619 -602 -610 0
620 -612 0
620 -616 0
612 616 -620 0
612 -621 0
616 -621 0
621 -612 -616 0
622 -614 0
622 -618 0
614 618 -622 0
614 -623 0
618 -623 0
623 -614 -618 0
624 -620 0
624 -622 0
620 622 -624 0
620 -625 0
622 -625 0
625 -620 -622 0
626 -621 0
626 -623 0
621 623 -626 0
621 -627 0
623 -627 0
627 -621 -623 0
628 -613 0
628 -617 0
613 617 -628 0
613 -629 0
617 -629 0
629 -613 -617 0
630 -615 0
630 -619 0
615 619 -630 0
615 -631 0
619 -631 0
631 -615 -619 0
632 -628 0
632 -630 0
628 630 -632 0
628 -633 0
630 -633 0
633 -628 -630 0
634 -629 0
634 -631 0
629 631 -634 0
629 -635 0
631 -635 0
635 -629 -631 0
636 -597 0
636 -605 0
597 605 -636 0
597 -637 0
605 -637 0
637 -597 -605 0
638 -599 0
638 -607 0
599 607 -638 0
599 -639 0
607 -639 0
639 -599 -607 0
640 -601 0
640 -609 0
601 609 -640 0
601 -641 0
609 -641 0
641 -601 -609 0
642 -603 0
642 -611 0
603 611 -642 0
603 -643 0
611 -643 0
643 -603 -611 0
644 -636 0
644 -640 0
636 640 -644 0
636 -645 0
640 -645 0
645 -636 -640 0
646 -638 0
646 -642 0
638 642 -646 0
638 -647 0
642 -647 0
647 -638 -642 0
648 -644 0
648 -646 0
644 646 -648 0
644 -649 0
646 -649 0
649 -644 -646 0
650 -645 0
650 -647 0
645 647 -650 0
645 -651 0
647 -651 0
651 -645 -647 0
652 -637 0
652 -641 0
637 641 -652 0
637 -653 0
641 -653 0
653 -637 -641 0
654 -639 0
654 -643 0
639 643 -654 0
639 -655 0
643 -655 0
655 -639 -643 0
656 -652 0
656 -654 0
652 654 -656 0
652 -657 0
654 -657 0
657 -652 -654 0
658 -653 0
658 -655 0
653 655 -658 0
653 -659 0
655 -659 0
659 -653 -655 0
660 -585 0
660 -593 0
585 593 -660 0
585 -661 0
593 -661 0
661 -585 -593 0
662 -587 0
662 -595 0
587 595 -662 0
587 -663 0
595 -663 0
663 -587 -595 0
664 -660 0
664 -589 0
660 589 -664 0
660 -665 0
589 -665 0
665 -660 -589 0
666 -662 0
666 -591 0
662 591 -666 0
662 -667 0
591 -667 0
667 -662 -591 0
668 -664 0
668 -666 0
664 666 -668 0
664 -669 0
666 -669 0
669 -664 -666 0
670 -665 0
670 -667 0
665 667 -670 0
665 -671 0
667 -671 0
671 -665 -667 0
672 -661 0
672 -663 0
661 663 -672 0
661 -673 0
663 -673 0
673 -661 -663 0
624 -625 0
625 -626 0
626 -627 0
627 -632 0
632 -633 0
633 -634 0
634 -635 0
635 -648 0
648 -649 0
649 -650 0
650 -651 0
651 -656 0
656 -657 0
657 -658 0
658 -659 0
659 -668 0
668 -669 0
669 -670 0
670 -671 0
671 -672 0
672 -673 0
651 0
